[VALIDATOR STDOUT]
Checking plan: /home/fjl2401/Safety-gen/benchmark_problems/spanner/optic_results/spanner-s3-n2-l5-s3001.plan
Plan executed successfully - checking goal
Goal not satisfied
Plan invalid


Failed plans:
 /home/fjl2401/Safety-gen/benchmark_problems/spanner/optic_results/spanner-s3-n2-l5-s3001.plan
